
Version,
  24.2;                                   !- Version Identifier

Timestep,
  6;                                      !- Number of Timesteps per Hour

LifeCycleCost:Parameters,
  Life Cycle Cost Parameters,             !- Name
  EndOfYear,                              !- Discounting Convention
  ConstantDollar,                         !- Inflation Approach
  0.03,                                   !- Real Discount Rate
  ,                                       !- Nominal Discount Rate
  ,                                       !- Inflation
  ,                                       !- Base Date Month
  2011,                                   !- Base Date Year
  ,                                       !- Service Date Month
  2011,                                   !- Service Date Year
  25,                                     !- Length of Study Period in Years
  ,                                       !- Tax rate
  None;                                   !- Depreciation Method

LifeCycleCost:UsePriceEscalation,
  U.S. Avg  Commercial-Electricity,       !- Name
  Electricity,                            !- Resource
  2011,                                   !- Escalation Start Year
  January,                                !- Escalation Start Month
  0.9838,                                 !- Year Escalation 1
  0.9730,                                 !- Year Escalation 2
  0.9632,                                 !- Year Escalation 3
  0.9611,                                 !- Year Escalation 4
  0.9571,                                 !- Year Escalation 5
  0.9553,                                 !- Year Escalation 6
  0.9539,                                 !- Year Escalation 7
  0.9521,                                 !- Year Escalation 8
  0.9546,                                 !- Year Escalation 9
  0.9550,                                 !- Year Escalation 10
  0.9553,                                 !- Year Escalation 11
  0.9564,                                 !- Year Escalation 12
  0.9575,                                 !- Year Escalation 13
  0.9596,                                 !- Year Escalation 14
  0.9618,                                 !- Year Escalation 15
  0.9614,                                 !- Year Escalation 16
  0.9618,                                 !- Year Escalation 17
  0.9618,                                 !- Year Escalation 18
  0.9593,                                 !- Year Escalation 19
  0.9589,                                 !- Year Escalation 20
  0.9607,                                 !- Year Escalation 21
  0.9625,                                 !- Year Escalation 22
  0.9650,                                 !- Year Escalation 23
  0.9708,                                 !- Year Escalation 24
  0.9751,                                 !- Year Escalation 25
  0.9762,                                 !- Year Escalation 26
  0.9766,                                 !- Year Escalation 27
  0.9766,                                 !- Year Escalation 28
  0.9769,                                 !- Year Escalation 29
  0.9773;                                 !- Year Escalation 30

LifeCycleCost:UsePriceEscalation,
  U.S. Avg  Commercial-Distillate Oil,    !- Name
  FuelOilNo1,                             !- Resource
  2011,                                   !- Escalation Start Year
  January,                                !- Escalation Start Month
  0.9714,                                 !- Year Escalation 1
  0.9730,                                 !- Year Escalation 2
  0.9942,                                 !- Year Escalation 3
  1.0164,                                 !- Year Escalation 4
  1.0541,                                 !- Year Escalation 5
  1.0928,                                 !- Year Escalation 6
  1.1267,                                 !- Year Escalation 7
  1.1580,                                 !- Year Escalation 8
  1.1792,                                 !- Year Escalation 9
  1.1967,                                 !- Year Escalation 10
  1.2200,                                 !- Year Escalation 11
  1.2333,                                 !- Year Escalation 12
  1.2566,                                 !- Year Escalation 13
  1.2709,                                 !- Year Escalation 14
  1.2826,                                 !- Year Escalation 15
  1.2985,                                 !- Year Escalation 16
  1.3102,                                 !- Year Escalation 17
  1.3250,                                 !- Year Escalation 18
  1.3261,                                 !- Year Escalation 19
  1.3282,                                 !- Year Escalation 20
  1.3324,                                 !- Year Escalation 21
  1.3356,                                 !- Year Escalation 22
  1.3431,                                 !- Year Escalation 23
  1.3510,                                 !- Year Escalation 24
  1.3568,                                 !- Year Escalation 25
  1.3606,                                 !- Year Escalation 26
  1.3637,                                 !- Year Escalation 27
  1.3674,                                 !- Year Escalation 28
  1.3706,                                 !- Year Escalation 29
  1.3743;                                 !- Year Escalation 30

LifeCycleCost:UsePriceEscalation,
  U.S. Avg  Commercial-Residual Oil,      !- Name
  FuelOilNo2,                             !- Resource
  2011,                                   !- Escalation Start Year
  January,                                !- Escalation Start Month
  0.8469,                                 !- Year Escalation 1
  0.8257,                                 !- Year Escalation 2
  0.8681,                                 !- Year Escalation 3
  0.8988,                                 !- Year Escalation 4
  0.9289,                                 !- Year Escalation 5
  0.9604,                                 !- Year Escalation 6
  0.9897,                                 !- Year Escalation 7
  1.0075,                                 !- Year Escalation 8
  1.0314,                                 !- Year Escalation 9
  1.0554,                                 !- Year Escalation 10
  1.0861,                                 !- Year Escalation 11
  1.1278,                                 !- Year Escalation 12
  1.1497,                                 !- Year Escalation 13
  1.1620,                                 !- Year Escalation 14
  1.1743,                                 !- Year Escalation 15
  1.1852,                                 !- Year Escalation 16
  1.1948,                                 !- Year Escalation 17
  1.2037,                                 !- Year Escalation 18
  1.2071,                                 !- Year Escalation 19
  1.2119,                                 !- Year Escalation 20
  1.2139,                                 !- Year Escalation 21
  1.2194,                                 !- Year Escalation 22
  1.2276,                                 !- Year Escalation 23
  1.2365,                                 !- Year Escalation 24
  1.2420,                                 !- Year Escalation 25
  1.2461,                                 !- Year Escalation 26
  1.2509,                                 !- Year Escalation 27
  1.2550,                                 !- Year Escalation 28
  1.2591,                                 !- Year Escalation 29
  1.2638;                                 !- Year Escalation 30

LifeCycleCost:UsePriceEscalation,
  U.S. Avg  Commercial-Natural gas,       !- Name
  NaturalGas,                             !- Resource
  2011,                                   !- Escalation Start Year
  January,                                !- Escalation Start Month
  0.9823,                                 !- Year Escalation 1
  0.9557,                                 !- Year Escalation 2
  0.9279,                                 !- Year Escalation 3
  0.9257,                                 !- Year Escalation 4
  0.9346,                                 !- Year Escalation 5
  0.9412,                                 !- Year Escalation 6
  0.9512,                                 !- Year Escalation 7
  0.9645,                                 !- Year Escalation 8
  0.9856,                                 !- Year Escalation 9
  1.0067,                                 !- Year Escalation 10
  1.0222,                                 !- Year Escalation 11
  1.0410,                                 !- Year Escalation 12
  1.0610,                                 !- Year Escalation 13
  1.0787,                                 !- Year Escalation 14
  1.0942,                                 !- Year Escalation 15
  1.1098,                                 !- Year Escalation 16
  1.1220,                                 !- Year Escalation 17
  1.1308,                                 !- Year Escalation 18
  1.1386,                                 !- Year Escalation 19
  1.1486,                                 !- Year Escalation 20
  1.1619,                                 !- Year Escalation 21
  1.1763,                                 !- Year Escalation 22
  1.1918,                                 !- Year Escalation 23
  1.2118,                                 !- Year Escalation 24
  1.2284,                                 !- Year Escalation 25
  1.2439,                                 !- Year Escalation 26
  1.2605,                                 !- Year Escalation 27
  1.2772,                                 !- Year Escalation 28
  1.2938,                                 !- Year Escalation 29
  1.3115;                                 !- Year Escalation 30

LifeCycleCost:UsePriceEscalation,
  U.S. Avg  Commercial-Coal,              !- Name
  Coal,                                   !- Resource
  2011,                                   !- Escalation Start Year
  January,                                !- Escalation Start Month
  0.9970,                                 !- Year Escalation 1
  1.0089,                                 !- Year Escalation 2
  1.0089,                                 !- Year Escalation 3
  0.9941,                                 !- Year Escalation 4
  0.9941,                                 !- Year Escalation 5
  1.0000,                                 !- Year Escalation 6
  1.0030,                                 !- Year Escalation 7
  1.0059,                                 !- Year Escalation 8
  1.0089,                                 !- Year Escalation 9
  1.0119,                                 !- Year Escalation 10
  1.0148,                                 !- Year Escalation 11
  1.0178,                                 !- Year Escalation 12
  1.0208,                                 !- Year Escalation 13
  1.0267,                                 !- Year Escalation 14
  1.0297,                                 !- Year Escalation 15
  1.0356,                                 !- Year Escalation 16
  1.0415,                                 !- Year Escalation 17
  1.0534,                                 !- Year Escalation 18
  1.0564,                                 !- Year Escalation 19
  1.0593,                                 !- Year Escalation 20
  1.0653,                                 !- Year Escalation 21
  1.0712,                                 !- Year Escalation 22
  1.0742,                                 !- Year Escalation 23
  1.0801,                                 !- Year Escalation 24
  1.0831,                                 !- Year Escalation 25
  1.0831,                                 !- Year Escalation 26
  1.0861,                                 !- Year Escalation 27
  1.0890,                                 !- Year Escalation 28
  1.0920,                                 !- Year Escalation 29
  1.0950;                                 !- Year Escalation 30

Building,
  Building 1,                             !- Name
  ,                                       !- North Axis {deg}
  ,                                       !- Terrain
  ,                                       !- Loads Convergence Tolerance Value {W}
  ,                                       !- Temperature Convergence Tolerance Value {deltaC}
  ,                                       !- Solar Distribution
  ,                                       !- Maximum Number of Warmup Days
  ;                                       !- Minimum Number of Warmup Days

Zone,
  attic - unvented,                       !- Name
  -0,                                     !- Direction of Relative North {deg}
  0,                                      !- X Origin {m}
  0,                                      !- Y Origin {m}
  2.67335,                                !- Z Origin {m}
  ,                                       !- Type
  1,                                      !- Multiplier
  ,                                       !- Ceiling Height {m}
  ,                                       !- Volume {m3}
  ,                                       !- Floor Area {m2}
  ,                                       !- Zone Inside Convection Algorithm
  ,                                       !- Zone Outside Convection Algorithm
  Yes;                                    !- Part of Total Floor Area

Space,
  attic - unvented 1,                     !- Name
  attic - unvented,                       !- Zone Name
  ,                                       !- Ceiling Height {m}
  ,                                       !- Volume {m3}
  ,                                       !- Floor Area {m2}
  Space Type 2;                           !- Space Type

SpaceList,
  Space Type 2,                           !- Name
  attic - unvented 1;                     !- Space Name 1

BuildingSurface:Detailed,
  Surface 10,                             !- Name
  Roof,                                   !- Surface Type
  ,                                       !- Construction Name
  attic - unvented,                       !- Zone Name
  attic - unvented 1,                     !- Space Name
  Outdoors,                               !- Outside Boundary Condition
  ,                                       !- Outside Boundary Condition Object
  SunExposed,                             !- Sun Exposure
  WindExposed,                            !- Wind Exposure
  ,                                       !- View Factor to Ground
  ,                                       !- Number of Vertices
  13.716, 4.572, 2.286,                   !- X,Y,Z Vertex 1 {m}
  0, 4.572, 2.286,                        !- X,Y,Z Vertex 2 {m}
  0, 0, 0,                                !- X,Y,Z Vertex 3 {m}
  13.716, 0, 0;                           !- X,Y,Z Vertex 4 {m}

BuildingSurface:Detailed,
  Surface 11,                             !- Name
  Wall,                                   !- Surface Type
  ,                                       !- Construction Name
  attic - unvented,                       !- Zone Name
  attic - unvented 1,                     !- Space Name
  Outdoors,                               !- Outside Boundary Condition
  ,                                       !- Outside Boundary Condition Object
  SunExposed,                             !- Sun Exposure
  WindExposed,                            !- Wind Exposure
  ,                                       !- View Factor to Ground
  ,                                       !- Number of Vertices
  0, 4.572, 2.286,                        !- X,Y,Z Vertex 1 {m}
  0, 9.144, 0,                            !- X,Y,Z Vertex 2 {m}
  0, 0, 0;                                !- X,Y,Z Vertex 3 {m}

BuildingSurface:Detailed,
  Surface 7,                              !- Name
  Floor,                                  !- Surface Type
  ,                                       !- Construction Name
  attic - unvented,                       !- Zone Name
  attic - unvented 1,                     !- Space Name
  Surface,                                !- Outside Boundary Condition
  Surface 6,                              !- Outside Boundary Condition Object
  NoSun,                                  !- Sun Exposure
  NoWind,                                 !- Wind Exposure
  ,                                       !- View Factor to Ground
  ,                                       !- Number of Vertices
  13.716, 9.144, 0,                       !- X,Y,Z Vertex 1 {m}
  13.716, 0, 0,                           !- X,Y,Z Vertex 2 {m}
  0, 0, 0,                                !- X,Y,Z Vertex 3 {m}
  0, 9.144, 0;                            !- X,Y,Z Vertex 4 {m}

BuildingSurface:Detailed,
  Surface 8,                              !- Name
  Roof,                                   !- Surface Type
  ,                                       !- Construction Name
  attic - unvented,                       !- Zone Name
  attic - unvented 1,                     !- Space Name
  Outdoors,                               !- Outside Boundary Condition
  ,                                       !- Outside Boundary Condition Object
  SunExposed,                             !- Sun Exposure
  WindExposed,                            !- Wind Exposure
  ,                                       !- View Factor to Ground
  ,                                       !- Number of Vertices
  0, 4.572, 2.286,                        !- X,Y,Z Vertex 1 {m}
  13.716, 4.572, 2.286,                   !- X,Y,Z Vertex 2 {m}
  13.716, 9.144, 0,                       !- X,Y,Z Vertex 3 {m}
  0, 9.144, 0;                            !- X,Y,Z Vertex 4 {m}

BuildingSurface:Detailed,
  Surface 9,                              !- Name
  Wall,                                   !- Surface Type
  ,                                       !- Construction Name
  attic - unvented,                       !- Zone Name
  attic - unvented 1,                     !- Space Name
  Outdoors,                               !- Outside Boundary Condition
  ,                                       !- Outside Boundary Condition Object
  SunExposed,                             !- Sun Exposure
  WindExposed,                            !- Wind Exposure
  ,                                       !- View Factor to Ground
  ,                                       !- Number of Vertices
  13.716, 4.572, 2.286,                   !- X,Y,Z Vertex 1 {m}
  13.716, 0, 0,                           !- X,Y,Z Vertex 2 {m}
  13.716, 9.144, 0;                       !- X,Y,Z Vertex 3 {m}

Zone,
  basement - conditioned,                 !- Name
  -0,                                     !- Direction of Relative North {deg}
  0,                                      !- X Origin {m}
  0,                                      !- Y Origin {m}
  -2.4384,                                !- Z Origin {m}
  ,                                       !- Type
  1,                                      !- Multiplier
  ,                                       !- Ceiling Height {m}
  ,                                       !- Volume {m3}
  ,                                       !- Floor Area {m2}
  ,                                       !- Zone Inside Convection Algorithm
  ,                                       !- Zone Outside Convection Algorithm
  Yes;                                    !- Part of Total Floor Area

Space,
  basement - conditioned 1,               !- Name
  basement - conditioned,                 !- Zone Name
  ,                                       !- Ceiling Height {m}
  ,                                       !- Volume {m3}
  ,                                       !- Floor Area {m2}
  Space Type 3;                           !- Space Type

SpaceList,
  Space Type 3,                           !- Name
  basement - conditioned 1;               !- Space Name 1

BuildingSurface:Detailed,
  Surface 12,                             !- Name
  Floor,                                  !- Surface Type
  ,                                       !- Construction Name
  basement - conditioned,                 !- Zone Name
  basement - conditioned 1,               !- Space Name
  Foundation,                             !- Outside Boundary Condition
  ,                                       !- Outside Boundary Condition Object
  NoSun,                                  !- Sun Exposure
  NoWind,                                 !- Wind Exposure
  ,                                       !- View Factor to Ground
  ,                                       !- Number of Vertices
  0, 0, 0,                                !- X,Y,Z Vertex 1 {m}
  0, 9.144, 0,                            !- X,Y,Z Vertex 2 {m}
  13.716, 9.144, 0,                       !- X,Y,Z Vertex 3 {m}
  13.716, 0, 0;                           !- X,Y,Z Vertex 4 {m}

BuildingSurface:Detailed,
  Surface 13,                             !- Name
  Wall,                                   !- Surface Type
  ,                                       !- Construction Name
  basement - conditioned,                 !- Zone Name
  basement - conditioned 1,               !- Space Name
  Foundation,                             !- Outside Boundary Condition
  ,                                       !- Outside Boundary Condition Object
  NoSun,                                  !- Sun Exposure
  NoWind,                                 !- Wind Exposure
  ,                                       !- View Factor to Ground
  ,                                       !- Number of Vertices
  0, 0, 2.4384,                           !- X,Y,Z Vertex 1 {m}
  0, 9.144, 2.4384,                       !- X,Y,Z Vertex 2 {m}
  0, 9.144, 0,                            !- X,Y,Z Vertex 3 {m}
  0, 0, 0;                                !- X,Y,Z Vertex 4 {m}

BuildingSurface:Detailed,
  Surface 14,                             !- Name
  Wall,                                   !- Surface Type
  ,                                       !- Construction Name
  basement - conditioned,                 !- Zone Name
  basement - conditioned 1,               !- Space Name
  Foundation,                             !- Outside Boundary Condition
  ,                                       !- Outside Boundary Condition Object
  NoSun,                                  !- Sun Exposure
  NoWind,                                 !- Wind Exposure
  ,                                       !- View Factor to Ground
  ,                                       !- Number of Vertices
  0, 9.144, 2.4384,                       !- X,Y,Z Vertex 1 {m}
  13.716, 9.144, 2.4384,                  !- X,Y,Z Vertex 2 {m}
  13.716, 9.144, 0,                       !- X,Y,Z Vertex 3 {m}
  0, 9.144, 0;                            !- X,Y,Z Vertex 4 {m}

BuildingSurface:Detailed,
  Surface 15,                             !- Name
  Wall,                                   !- Surface Type
  ,                                       !- Construction Name
  basement - conditioned,                 !- Zone Name
  basement - conditioned 1,               !- Space Name
  Foundation,                             !- Outside Boundary Condition
  ,                                       !- Outside Boundary Condition Object
  NoSun,                                  !- Sun Exposure
  NoWind,                                 !- Wind Exposure
  ,                                       !- View Factor to Ground
  ,                                       !- Number of Vertices
  13.716, 9.144, 2.4384,                  !- X,Y,Z Vertex 1 {m}
  13.716, 0, 2.4384,                      !- X,Y,Z Vertex 2 {m}
  13.716, 0, 0,                           !- X,Y,Z Vertex 3 {m}
  13.716, 9.144, 0;                       !- X,Y,Z Vertex 4 {m}

BuildingSurface:Detailed,
  Surface 16,                             !- Name
  Wall,                                   !- Surface Type
  ,                                       !- Construction Name
  basement - conditioned,                 !- Zone Name
  basement - conditioned 1,               !- Space Name
  Foundation,                             !- Outside Boundary Condition
  ,                                       !- Outside Boundary Condition Object
  NoSun,                                  !- Sun Exposure
  NoWind,                                 !- Wind Exposure
  ,                                       !- View Factor to Ground
  ,                                       !- Number of Vertices
  13.716, 0, 2.4384,                      !- X,Y,Z Vertex 1 {m}
  0, 0, 2.4384,                           !- X,Y,Z Vertex 2 {m}
  0, 0, 0,                                !- X,Y,Z Vertex 3 {m}
  13.716, 0, 0;                           !- X,Y,Z Vertex 4 {m}

BuildingSurface:Detailed,
  Surface 19,                             !- Name
  Wall,                                   !- Surface Type
  ,                                       !- Construction Name
  basement - conditioned,                 !- Zone Name
  basement - conditioned 1,               !- Space Name
  Outdoors,                               !- Outside Boundary Condition
  ,                                       !- Outside Boundary Condition Object
  SunExposed,                             !- Sun Exposure
  WindExposed,                            !- Wind Exposure
  ,                                       !- View Factor to Ground
  ,                                       !- Number of Vertices
  0, 0, 2.67335,                          !- X,Y,Z Vertex 1 {m}
  0, 9.144, 2.67335,                      !- X,Y,Z Vertex 2 {m}
  0, 9.144, 2.4384,                       !- X,Y,Z Vertex 3 {m}
  0, 0, 2.4384;                           !- X,Y,Z Vertex 4 {m}

BuildingSurface:Detailed,
  Surface 20,                             !- Name
  Wall,                                   !- Surface Type
  ,                                       !- Construction Name
  basement - conditioned,                 !- Zone Name
  basement - conditioned 1,               !- Space Name
  Outdoors,                               !- Outside Boundary Condition
  ,                                       !- Outside Boundary Condition Object
  SunExposed,                             !- Sun Exposure
  WindExposed,                            !- Wind Exposure
  ,                                       !- View Factor to Ground
  ,                                       !- Number of Vertices
  0, 9.144, 2.67335,                      !- X,Y,Z Vertex 1 {m}
  13.716, 9.144, 2.67335,                 !- X,Y,Z Vertex 2 {m}
  13.716, 9.144, 2.4384,                  !- X,Y,Z Vertex 3 {m}
  0, 9.144, 2.4384;                       !- X,Y,Z Vertex 4 {m}

BuildingSurface:Detailed,
  Surface 21,                             !- Name
  Wall,                                   !- Surface Type
  ,                                       !- Construction Name
  basement - conditioned,                 !- Zone Name
  basement - conditioned 1,               !- Space Name
  Outdoors,                               !- Outside Boundary Condition
  ,                                       !- Outside Boundary Condition Object
  SunExposed,                             !- Sun Exposure
  WindExposed,                            !- Wind Exposure
  ,                                       !- View Factor to Ground
  ,                                       !- Number of Vertices
  13.716, 9.144, 2.67335,                 !- X,Y,Z Vertex 1 {m}
  13.716, 0, 2.67335,                     !- X,Y,Z Vertex 2 {m}
  13.716, 0, 2.4384,                      !- X,Y,Z Vertex 3 {m}
  13.716, 9.144, 2.4384;                  !- X,Y,Z Vertex 4 {m}

BuildingSurface:Detailed,
  Surface 22,                             !- Name
  Wall,                                   !- Surface Type
  ,                                       !- Construction Name
  basement - conditioned,                 !- Zone Name
  basement - conditioned 1,               !- Space Name
  Outdoors,                               !- Outside Boundary Condition
  ,                                       !- Outside Boundary Condition Object
  SunExposed,                             !- Sun Exposure
  WindExposed,                            !- Wind Exposure
  ,                                       !- View Factor to Ground
  ,                                       !- Number of Vertices
  13.716, 0, 2.67335,                     !- X,Y,Z Vertex 1 {m}
  0, 0, 2.67335,                          !- X,Y,Z Vertex 2 {m}
  0, 0, 2.4384,                           !- X,Y,Z Vertex 3 {m}
  13.716, 0, 2.4384;                      !- X,Y,Z Vertex 4 {m}

BuildingSurface:Detailed,
  Surface 23,                             !- Name
  Ceiling,                                !- Surface Type
  ,                                       !- Construction Name
  basement - conditioned,                 !- Zone Name
  basement - conditioned 1,               !- Space Name
  Surface,                                !- Outside Boundary Condition
  Surface 1,                              !- Outside Boundary Condition Object
  NoSun,                                  !- Sun Exposure
  NoWind,                                 !- Wind Exposure
  ,                                       !- View Factor to Ground
  ,                                       !- Number of Vertices
  13.716, 0, 2.67335,                     !- X,Y,Z Vertex 1 {m}
  13.716, 9.144, 2.67335,                 !- X,Y,Z Vertex 2 {m}
  0, 9.144, 2.67335,                      !- X,Y,Z Vertex 3 {m}
  0, 0, 2.67335;                          !- X,Y,Z Vertex 4 {m}

Zone,
  conditioned space,                      !- Name
  -0,                                     !- Direction of Relative North {deg}
  0,                                      !- X Origin {m}
  0,                                      !- Y Origin {m}
  0.23495,                                !- Z Origin {m}
  ,                                       !- Type
  1,                                      !- Multiplier
  ,                                       !- Ceiling Height {m}
  ,                                       !- Volume {m3}
  ,                                       !- Floor Area {m2}
  ,                                       !- Zone Inside Convection Algorithm
  ,                                       !- Zone Outside Convection Algorithm
  Yes;                                    !- Part of Total Floor Area

Space,
  conditioned space 1,                    !- Name
  conditioned space,                      !- Zone Name
  ,                                       !- Ceiling Height {m}
  ,                                       !- Volume {m3}
  ,                                       !- Floor Area {m2}
  Space Type 1;                           !- Space Type

SpaceList,
  Space Type 1,                           !- Name
  conditioned space 1;                    !- Space Name 1

BuildingSurface:Detailed,
  Surface 1,                              !- Name
  Floor,                                  !- Surface Type
  ,                                       !- Construction Name
  conditioned space,                      !- Zone Name
  conditioned space 1,                    !- Space Name
  Surface,                                !- Outside Boundary Condition
  Surface 23,                             !- Outside Boundary Condition Object
  NoSun,                                  !- Sun Exposure
  NoWind,                                 !- Wind Exposure
  ,                                       !- View Factor to Ground
  ,                                       !- Number of Vertices
  13.716, 9.144, 0,                       !- X,Y,Z Vertex 1 {m}
  13.716, 0, 0,                           !- X,Y,Z Vertex 2 {m}
  0, 0, 0,                                !- X,Y,Z Vertex 3 {m}
  0, 9.144, 0;                            !- X,Y,Z Vertex 4 {m}

BuildingSurface:Detailed,
  Surface 2,                              !- Name
  Wall,                                   !- Surface Type
  ,                                       !- Construction Name
  conditioned space,                      !- Zone Name
  conditioned space 1,                    !- Space Name
  Outdoors,                               !- Outside Boundary Condition
  ,                                       !- Outside Boundary Condition Object
  SunExposed,                             !- Sun Exposure
  WindExposed,                            !- Wind Exposure
  ,                                       !- View Factor to Ground
  ,                                       !- Number of Vertices
  0, 0, 2.4384,                           !- X,Y,Z Vertex 1 {m}
  0, 9.144, 2.4384,                       !- X,Y,Z Vertex 2 {m}
  0, 9.144, -2.77555756156289e-17,        !- X,Y,Z Vertex 3 {m}
  0, 0, -2.77555756156289e-17;            !- X,Y,Z Vertex 4 {m}

FenestrationSurface:Detailed,
  Surface 2 - Window 1,                   !- Name
  Window,                                 !- Surface Type
  ,                                       !- Construction Name
  Surface 2,                              !- Building Surface Name
  ,                                       !- Outside Boundary Condition Object
  ,                                       !- View Factor to Ground
  ,                                       !- Frame and Divider Name
  ,                                       !- Multiplier
  ,                                       !- Number of Vertices
  0, 7.80299432143572, 2.1336,            !- X,Y,Z Vertex 1 {m}
  0, 7.80299432143572, 0.914552409526191, !- X,Y,Z Vertex 2 {m}
  0, 6.88848, 0.914552409526191,          !- X,Y,Z Vertex 3 {m}
  0, 6.88848, 2.1336;                     !- X,Y,Z Vertex 4 {m}

FenestrationSurface:Detailed,
  Surface 2 - Window 2,                   !- Name
  Window,                                 !- Surface Type
  ,                                       !- Construction Name
  Surface 2,                              !- Building Surface Name
  ,                                       !- Outside Boundary Condition Object
  ,                                       !- View Factor to Ground
  ,                                       !- Frame and Divider Name
  ,                                       !- Multiplier
  ,                                       !- Number of Vertices
  0, 6.82752, 2.1336,                     !- X,Y,Z Vertex 1 {m}
  0, 6.82752, 0.914552409526191,          !- X,Y,Z Vertex 2 {m}
  0, 5.91300567856428, 0.914552409526191, !- X,Y,Z Vertex 3 {m}
  0, 5.91300567856428, 2.1336;            !- X,Y,Z Vertex 4 {m}

FenestrationSurface:Detailed,
  Surface 2 - Window 3,                   !- Name
  Window,                                 !- Surface Type
  ,                                       !- Construction Name
  Surface 2,                              !- Building Surface Name
  ,                                       !- Outside Boundary Condition Object
  ,                                       !- View Factor to Ground
  ,                                       !- Frame and Divider Name
  ,                                       !- Multiplier
  ,                                       !- Number of Vertices
  0, 5.51699432143572, 2.1336,            !- X,Y,Z Vertex 1 {m}
  0, 5.51699432143572, 0.914552409526191, !- X,Y,Z Vertex 2 {m}
  0, 4.60248, 0.914552409526191,          !- X,Y,Z Vertex 3 {m}
  0, 4.60248, 2.1336;                     !- X,Y,Z Vertex 4 {m}

FenestrationSurface:Detailed,
  Surface 2 - Window 4,                   !- Name
  Window,                                 !- Surface Type
  ,                                       !- Construction Name
  Surface 2,                              !- Building Surface Name
  ,                                       !- Outside Boundary Condition Object
  ,                                       !- View Factor to Ground
  ,                                       !- Frame and Divider Name
  ,                                       !- Multiplier
  ,                                       !- Number of Vertices
  0, 4.54152, 2.1336,                     !- X,Y,Z Vertex 1 {m}
  0, 4.54152, 0.914552409526191,          !- X,Y,Z Vertex 2 {m}
  0, 3.62700567856428, 0.914552409526191, !- X,Y,Z Vertex 3 {m}
  0, 3.62700567856428, 2.1336;            !- X,Y,Z Vertex 4 {m}

FenestrationSurface:Detailed,
  Surface 2 - Window 5,                   !- Name
  Window,                                 !- Surface Type
  ,                                       !- Construction Name
  Surface 2,                              !- Building Surface Name
  ,                                       !- Outside Boundary Condition Object
  ,                                       !- View Factor to Ground
  ,                                       !- Frame and Divider Name
  ,                                       !- Multiplier
  ,                                       !- Number of Vertices
  0, 3.23099432143572, 2.1336,            !- X,Y,Z Vertex 1 {m}
  0, 3.23099432143572, 0.914552409526191, !- X,Y,Z Vertex 2 {m}
  0, 2.31648, 0.914552409526191,          !- X,Y,Z Vertex 3 {m}
  0, 2.31648, 2.1336;                     !- X,Y,Z Vertex 4 {m}

FenestrationSurface:Detailed,
  Surface 2 - Window 6,                   !- Name
  Window,                                 !- Surface Type
  ,                                       !- Construction Name
  Surface 2,                              !- Building Surface Name
  ,                                       !- Outside Boundary Condition Object
  ,                                       !- View Factor to Ground
  ,                                       !- Frame and Divider Name
  ,                                       !- Multiplier
  ,                                       !- Number of Vertices
  0, 2.25552, 2.1336,                     !- X,Y,Z Vertex 1 {m}
  0, 2.25552, 0.914552409526191,          !- X,Y,Z Vertex 2 {m}
  0, 1.34100567856428, 0.914552409526191, !- X,Y,Z Vertex 3 {m}
  0, 1.34100567856428, 2.1336;            !- X,Y,Z Vertex 4 {m}

BuildingSurface:Detailed,
  Surface 24,                             !- Name
  Wall,                                   !- Surface Type
  ,                                       !- Construction Name
  conditioned space,                      !- Zone Name
  conditioned space 1,                    !- Space Name
  Outdoors,                               !- Outside Boundary Condition
  ,                                       !- Outside Boundary Condition Object
  SunExposed,                             !- Sun Exposure
  WindExposed,                            !- Wind Exposure
  ,                                       !- View Factor to Ground
  ,                                       !- Number of Vertices
  1.91951428571429, 0, -2.77555756156289e-17, !- X,Y,Z Vertex 1 {m}
  1.91951428571429, 0, 2.4384,            !- X,Y,Z Vertex 2 {m}
  0.127, 0, 2.4384,                       !- X,Y,Z Vertex 3 {m}
  0.127, 0, -2.77555756156289e-17;        !- X,Y,Z Vertex 4 {m}

FenestrationSurface:Detailed,
  Surface 5 - Door,                       !- Name
  Door,                                   !- Surface Type
  ,                                       !- Construction Name
  Surface 24,                             !- Building Surface Name
  ,                                       !- Outside Boundary Condition Object
  ,                                       !- View Factor to Ground
  ,                                       !- Frame and Divider Name
  ,                                       !- Multiplier
  ,                                       !- Number of Vertices
  0.1524, 0, 2.1336,                      !- X,Y,Z Vertex 1 {m}
  0.1524, 0, 0,                           !- X,Y,Z Vertex 2 {m}
  1.89411428571429, 0, 0,                 !- X,Y,Z Vertex 3 {m}
  1.89411428571429, 0, 2.1336;            !- X,Y,Z Vertex 4 {m}

BuildingSurface:Detailed,
  Surface 25,                             !- Name
  Wall,                                   !- Surface Type
  ,                                       !- Construction Name
  conditioned space,                      !- Zone Name
  conditioned space 1,                    !- Space Name
  Outdoors,                               !- Outside Boundary Condition
  ,                                       !- Outside Boundary Condition Object
  SunExposed,                             !- Sun Exposure
  WindExposed,                            !- Wind Exposure
  ,                                       !- View Factor to Ground
  ,                                       !- Number of Vertices
  0.127, 0, 2.4384,                       !- X,Y,Z Vertex 1 {m}
  0, 0, 2.4384,                           !- X,Y,Z Vertex 2 {m}
  0, 0, -2.77555756156289e-17,            !- X,Y,Z Vertex 3 {m}
  0.127, 0, -2.77555756156289e-17;        !- X,Y,Z Vertex 4 {m}

BuildingSurface:Detailed,
  Surface 3,                              !- Name
  Wall,                                   !- Surface Type
  ,                                       !- Construction Name
  conditioned space,                      !- Zone Name
  conditioned space 1,                    !- Space Name
  Outdoors,                               !- Outside Boundary Condition
  ,                                       !- Outside Boundary Condition Object
  SunExposed,                             !- Sun Exposure
  WindExposed,                            !- Wind Exposure
  ,                                       !- View Factor to Ground
  ,                                       !- Number of Vertices
  0, 9.144, 2.4384,                       !- X,Y,Z Vertex 1 {m}
  13.716, 9.144, 2.4384,                  !- X,Y,Z Vertex 2 {m}
  13.716, 9.144, -2.77555756156289e-17,   !- X,Y,Z Vertex 3 {m}
  0, 9.144, -2.77555756156289e-17;        !- X,Y,Z Vertex 4 {m}

FenestrationSurface:Detailed,
  Surface 3 - Window 1,                   !- Name
  Window,                                 !- Surface Type
  ,                                       !- Construction Name
  Surface 3,                              !- Building Surface Name
  ,                                       !- Outside Boundary Condition Object
  ,                                       !- View Factor to Ground
  ,                                       !- Frame and Divider Name
  ,                                       !- Multiplier
  ,                                       !- Number of Vertices
  12.3749943214357, 9.144, 2.1336,        !- X,Y,Z Vertex 1 {m}
  12.3749943214357, 9.144, 0.914552409526191, !- X,Y,Z Vertex 2 {m}
  11.46048, 9.144, 0.914552409526191,     !- X,Y,Z Vertex 3 {m}
  11.46048, 9.144, 2.1336;                !- X,Y,Z Vertex 4 {m}

FenestrationSurface:Detailed,
  Surface 3 - Window 2,                   !- Name
  Window,                                 !- Surface Type
  ,                                       !- Construction Name
  Surface 3,                              !- Building Surface Name
  ,                                       !- Outside Boundary Condition Object
  ,                                       !- View Factor to Ground
  ,                                       !- Frame and Divider Name
  ,                                       !- Multiplier
  ,                                       !- Number of Vertices
  11.39952, 9.144, 2.1336,                !- X,Y,Z Vertex 1 {m}
  11.39952, 9.144, 0.914552409526191,     !- X,Y,Z Vertex 2 {m}
  10.4850056785643, 9.144, 0.914552409526191, !- X,Y,Z Vertex 3 {m}
  10.4850056785643, 9.144, 2.1336;        !- X,Y,Z Vertex 4 {m}

FenestrationSurface:Detailed,
  Surface 3 - Window 3,                   !- Name
  Window,                                 !- Surface Type
  ,                                       !- Construction Name
  Surface 3,                              !- Building Surface Name
  ,                                       !- Outside Boundary Condition Object
  ,                                       !- View Factor to Ground
  ,                                       !- Frame and Divider Name
  ,                                       !- Multiplier
  ,                                       !- Number of Vertices
  10.0889943214357, 9.144, 2.1336,        !- X,Y,Z Vertex 1 {m}
  10.0889943214357, 9.144, 0.914552409526191, !- X,Y,Z Vertex 2 {m}
  9.17448, 9.144, 0.914552409526191,      !- X,Y,Z Vertex 3 {m}
  9.17448, 9.144, 2.1336;                 !- X,Y,Z Vertex 4 {m}

FenestrationSurface:Detailed,
  Surface 3 - Window 4,                   !- Name
  Window,                                 !- Surface Type
  ,                                       !- Construction Name
  Surface 3,                              !- Building Surface Name
  ,                                       !- Outside Boundary Condition Object
  ,                                       !- View Factor to Ground
  ,                                       !- Frame and Divider Name
  ,                                       !- Multiplier
  ,                                       !- Number of Vertices
  9.11352, 9.144, 2.1336,                 !- X,Y,Z Vertex 1 {m}
  9.11352, 9.144, 0.914552409526191,      !- X,Y,Z Vertex 2 {m}
  8.19900567856428, 9.144, 0.914552409526191, !- X,Y,Z Vertex 3 {m}
  8.19900567856428, 9.144, 2.1336;        !- X,Y,Z Vertex 4 {m}

FenestrationSurface:Detailed,
  Surface 3 - Window 5,                   !- Name
  Window,                                 !- Surface Type
  ,                                       !- Construction Name
  Surface 3,                              !- Building Surface Name
  ,                                       !- Outside Boundary Condition Object
  ,                                       !- View Factor to Ground
  ,                                       !- Frame and Divider Name
  ,                                       !- Multiplier
  ,                                       !- Number of Vertices
  7.80299432143572, 9.144, 2.1336,        !- X,Y,Z Vertex 1 {m}
  7.80299432143572, 9.144, 0.914552409526191, !- X,Y,Z Vertex 2 {m}
  6.88848, 9.144, 0.914552409526191,      !- X,Y,Z Vertex 3 {m}
  6.88848, 9.144, 2.1336;                 !- X,Y,Z Vertex 4 {m}

FenestrationSurface:Detailed,
  Surface 3 - Window 6,                   !- Name
  Window,                                 !- Surface Type
  ,                                       !- Construction Name
  Surface 3,                              !- Building Surface Name
  ,                                       !- Outside Boundary Condition Object
  ,                                       !- View Factor to Ground
  ,                                       !- Frame and Divider Name
  ,                                       !- Multiplier
  ,                                       !- Number of Vertices
  6.82752, 9.144, 2.1336,                 !- X,Y,Z Vertex 1 {m}
  6.82752, 9.144, 0.914552409526191,      !- X,Y,Z Vertex 2 {m}
  5.91300567856428, 9.144, 0.914552409526191, !- X,Y,Z Vertex 3 {m}
  5.91300567856428, 9.144, 2.1336;        !- X,Y,Z Vertex 4 {m}

FenestrationSurface:Detailed,
  Surface 3 - Window 7,                   !- Name
  Window,                                 !- Surface Type
  ,                                       !- Construction Name
  Surface 3,                              !- Building Surface Name
  ,                                       !- Outside Boundary Condition Object
  ,                                       !- View Factor to Ground
  ,                                       !- Frame and Divider Name
  ,                                       !- Multiplier
  ,                                       !- Number of Vertices
  5.51699432143572, 9.144, 2.1336,        !- X,Y,Z Vertex 1 {m}
  5.51699432143572, 9.144, 0.914552409526191, !- X,Y,Z Vertex 2 {m}
  4.60248, 9.144, 0.914552409526191,      !- X,Y,Z Vertex 3 {m}
  4.60248, 9.144, 2.1336;                 !- X,Y,Z Vertex 4 {m}

FenestrationSurface:Detailed,
  Surface 3 - Window 8,                   !- Name
  Window,                                 !- Surface Type
  ,                                       !- Construction Name
  Surface 3,                              !- Building Surface Name
  ,                                       !- Outside Boundary Condition Object
  ,                                       !- View Factor to Ground
  ,                                       !- Frame and Divider Name
  ,                                       !- Multiplier
  ,                                       !- Number of Vertices
  4.54152, 9.144, 2.1336,                 !- X,Y,Z Vertex 1 {m}
  4.54152, 9.144, 0.914552409526191,      !- X,Y,Z Vertex 2 {m}
  3.62700567856428, 9.144, 0.914552409526191, !- X,Y,Z Vertex 3 {m}
  3.62700567856428, 9.144, 2.1336;        !- X,Y,Z Vertex 4 {m}

FenestrationSurface:Detailed,
  Surface 3 - Window 9,                   !- Name
  Window,                                 !- Surface Type
  ,                                       !- Construction Name
  Surface 3,                              !- Building Surface Name
  ,                                       !- Outside Boundary Condition Object
  ,                                       !- View Factor to Ground
  ,                                       !- Frame and Divider Name
  ,                                       !- Multiplier
  ,                                       !- Number of Vertices
  2.74325716071786, 9.144, 2.1336,        !- X,Y,Z Vertex 1 {m}
  2.74325716071786, 9.144, 0.914552409526191, !- X,Y,Z Vertex 2 {m}
  1.82874283928214, 9.144, 0.914552409526191, !- X,Y,Z Vertex 3 {m}
  1.82874283928214, 9.144, 2.1336;        !- X,Y,Z Vertex 4 {m}

BuildingSurface:Detailed,
  Surface 4,                              !- Name
  Wall,                                   !- Surface Type
  ,                                       !- Construction Name
  conditioned space,                      !- Zone Name
  conditioned space 1,                    !- Space Name
  Outdoors,                               !- Outside Boundary Condition
  ,                                       !- Outside Boundary Condition Object
  SunExposed,                             !- Sun Exposure
  WindExposed,                            !- Wind Exposure
  ,                                       !- View Factor to Ground
  ,                                       !- Number of Vertices
  13.716, 9.144, 2.4384,                  !- X,Y,Z Vertex 1 {m}
  13.716, 0, 2.4384,                      !- X,Y,Z Vertex 2 {m}
  13.716, 0, -2.77555756156289e-17,       !- X,Y,Z Vertex 3 {m}
  13.716, 9.144, -2.77555756156289e-17;   !- X,Y,Z Vertex 4 {m}

FenestrationSurface:Detailed,
  Surface 4 - Window 1,                   !- Name
  Window,                                 !- Surface Type
  ,                                       !- Construction Name
  Surface 4,                              !- Building Surface Name
  ,                                       !- Outside Boundary Condition Object
  ,                                       !- View Factor to Ground
  ,                                       !- Frame and Divider Name
  ,                                       !- Multiplier
  ,                                       !- Number of Vertices
  13.716, 1.34100567856428, 2.1336,       !- X,Y,Z Vertex 1 {m}
  13.716, 1.34100567856428, 0.914552409526191, !- X,Y,Z Vertex 2 {m}
  13.716, 2.25552, 0.914552409526191,     !- X,Y,Z Vertex 3 {m}
  13.716, 2.25552, 2.1336;                !- X,Y,Z Vertex 4 {m}

FenestrationSurface:Detailed,
  Surface 4 - Window 2,                   !- Name
  Window,                                 !- Surface Type
  ,                                       !- Construction Name
  Surface 4,                              !- Building Surface Name
  ,                                       !- Outside Boundary Condition Object
  ,                                       !- View Factor to Ground
  ,                                       !- Frame and Divider Name
  ,                                       !- Multiplier
  ,                                       !- Number of Vertices
  13.716, 2.31648, 2.1336,                !- X,Y,Z Vertex 1 {m}
  13.716, 2.31648, 0.914552409526191,     !- X,Y,Z Vertex 2 {m}
  13.716, 3.23099432143572, 0.914552409526191, !- X,Y,Z Vertex 3 {m}
  13.716, 3.23099432143572, 2.1336;       !- X,Y,Z Vertex 4 {m}

FenestrationSurface:Detailed,
  Surface 4 - Window 3,                   !- Name
  Window,                                 !- Surface Type
  ,                                       !- Construction Name
  Surface 4,                              !- Building Surface Name
  ,                                       !- Outside Boundary Condition Object
  ,                                       !- View Factor to Ground
  ,                                       !- Frame and Divider Name
  ,                                       !- Multiplier
  ,                                       !- Number of Vertices
  13.716, 3.62700567856428, 2.1336,       !- X,Y,Z Vertex 1 {m}
  13.716, 3.62700567856428, 0.914552409526191, !- X,Y,Z Vertex 2 {m}
  13.716, 4.54152, 0.914552409526191,     !- X,Y,Z Vertex 3 {m}
  13.716, 4.54152, 2.1336;                !- X,Y,Z Vertex 4 {m}

FenestrationSurface:Detailed,
  Surface 4 - Window 4,                   !- Name
  Window,                                 !- Surface Type
  ,                                       !- Construction Name
  Surface 4,                              !- Building Surface Name
  ,                                       !- Outside Boundary Condition Object
  ,                                       !- View Factor to Ground
  ,                                       !- Frame and Divider Name
  ,                                       !- Multiplier
  ,                                       !- Number of Vertices
  13.716, 4.60248, 2.1336,                !- X,Y,Z Vertex 1 {m}
  13.716, 4.60248, 0.914552409526191,     !- X,Y,Z Vertex 2 {m}
  13.716, 5.51699432143572, 0.914552409526191, !- X,Y,Z Vertex 3 {m}
  13.716, 5.51699432143572, 2.1336;       !- X,Y,Z Vertex 4 {m}

FenestrationSurface:Detailed,
  Surface 4 - Window 5,                   !- Name
  Window,                                 !- Surface Type
  ,                                       !- Construction Name
  Surface 4,                              !- Building Surface Name
  ,                                       !- Outside Boundary Condition Object
  ,                                       !- View Factor to Ground
  ,                                       !- Frame and Divider Name
  ,                                       !- Multiplier
  ,                                       !- Number of Vertices
  13.716, 5.91300567856428, 2.1336,       !- X,Y,Z Vertex 1 {m}
  13.716, 5.91300567856428, 0.914552409526191, !- X,Y,Z Vertex 2 {m}
  13.716, 6.82752, 0.914552409526191,     !- X,Y,Z Vertex 3 {m}
  13.716, 6.82752, 2.1336;                !- X,Y,Z Vertex 4 {m}

FenestrationSurface:Detailed,
  Surface 4 - Window 6,                   !- Name
  Window,                                 !- Surface Type
  ,                                       !- Construction Name
  Surface 4,                              !- Building Surface Name
  ,                                       !- Outside Boundary Condition Object
  ,                                       !- View Factor to Ground
  ,                                       !- Frame and Divider Name
  ,                                       !- Multiplier
  ,                                       !- Number of Vertices
  13.716, 6.88848, 2.1336,                !- X,Y,Z Vertex 1 {m}
  13.716, 6.88848, 0.914552409526191,     !- X,Y,Z Vertex 2 {m}
  13.716, 7.80299432143572, 0.914552409526191, !- X,Y,Z Vertex 3 {m}
  13.716, 7.80299432143572, 2.1336;       !- X,Y,Z Vertex 4 {m}

BuildingSurface:Detailed,
  Surface 5,                              !- Name
  Wall,                                   !- Surface Type
  ,                                       !- Construction Name
  conditioned space,                      !- Zone Name
  conditioned space 1,                    !- Space Name
  Outdoors,                               !- Outside Boundary Condition
  ,                                       !- Outside Boundary Condition Object
  SunExposed,                             !- Sun Exposure
  WindExposed,                            !- Wind Exposure
  ,                                       !- View Factor to Ground
  ,                                       !- Number of Vertices
  13.716, 0, -2.77555756156289e-17,       !- X,Y,Z Vertex 1 {m}
  13.716, 0, 2.4384,                      !- X,Y,Z Vertex 2 {m}
  1.91951428571429, 0, 2.4384,            !- X,Y,Z Vertex 3 {m}
  1.91951428571429, 0, -2.77555756156289e-17; !- X,Y,Z Vertex 4 {m}

FenestrationSurface:Detailed,
  Surface 5 - Window 1,                   !- Name
  Window,                                 !- Surface Type
  ,                                       !- Construction Name
  Surface 5,                              !- Building Surface Name
  ,                                       !- Outside Boundary Condition Object
  ,                                       !- View Factor to Ground
  ,                                       !- Frame and Divider Name
  ,                                       !- Multiplier
  ,                                       !- Number of Vertices
  2.94060115856428, 0, 2.1336,            !- X,Y,Z Vertex 1 {m}
  2.94060115856428, 0, 0.914552409526191, !- X,Y,Z Vertex 2 {m}
  3.85511548, 0, 0.914552409526191,       !- X,Y,Z Vertex 3 {m}
  3.85511548, 0, 2.1336;                  !- X,Y,Z Vertex 4 {m}

FenestrationSurface:Detailed,
  Surface 5 - Window 2,                   !- Name
  Window,                                 !- Surface Type
  ,                                       !- Construction Name
  Surface 5,                              !- Building Surface Name
  ,                                       !- Outside Boundary Condition Object
  ,                                       !- View Factor to Ground
  ,                                       !- Frame and Divider Name
  ,                                       !- Multiplier
  ,                                       !- Number of Vertices
  3.91607548, 0, 2.1336,                  !- X,Y,Z Vertex 1 {m}
  3.91607548, 0, 0.914552409526191,       !- X,Y,Z Vertex 2 {m}
  4.83058980143572, 0, 0.914552409526191, !- X,Y,Z Vertex 3 {m}
  4.83058980143572, 0, 2.1336;            !- X,Y,Z Vertex 4 {m}

FenestrationSurface:Detailed,
  Surface 5 - Window 3,                   !- Name
  Window,                                 !- Surface Type
  ,                                       !- Construction Name
  Surface 5,                              !- Building Surface Name
  ,                                       !- Outside Boundary Condition Object
  ,                                       !- View Factor to Ground
  ,                                       !- Frame and Divider Name
  ,                                       !- Multiplier
  ,                                       !- Number of Vertices
  4.90668206256428, 0, 2.1336,            !- X,Y,Z Vertex 1 {m}
  4.90668206256428, 0, 0.914552409526191, !- X,Y,Z Vertex 2 {m}
  5.821196384, 0, 0.914552409526191,      !- X,Y,Z Vertex 3 {m}
  5.821196384, 0, 2.1336;                 !- X,Y,Z Vertex 4 {m}

FenestrationSurface:Detailed,
  Surface 5 - Window 4,                   !- Name
  Window,                                 !- Surface Type
  ,                                       !- Construction Name
  Surface 5,                              !- Building Surface Name
  ,                                       !- Outside Boundary Condition Object
  ,                                       !- View Factor to Ground
  ,                                       !- Frame and Divider Name
  ,                                       !- Multiplier
  ,                                       !- Number of Vertices
  5.882156384, 0, 2.1336,                 !- X,Y,Z Vertex 1 {m}
  5.882156384, 0, 0.914552409526191,      !- X,Y,Z Vertex 2 {m}
  6.79667070543571, 0, 0.914552409526191, !- X,Y,Z Vertex 3 {m}
  6.79667070543571, 0, 2.1336;            !- X,Y,Z Vertex 4 {m}

FenestrationSurface:Detailed,
  Surface 5 - Window 5,                   !- Name
  Window,                                 !- Surface Type
  ,                                       !- Construction Name
  Surface 5,                              !- Building Surface Name
  ,                                       !- Outside Boundary Condition Object
  ,                                       !- View Factor to Ground
  ,                                       !- Frame and Divider Name
  ,                                       !- Multiplier
  ,                                       !- Number of Vertices
  6.87276296656428, 0, 2.1336,            !- X,Y,Z Vertex 1 {m}
  6.87276296656428, 0, 0.914552409526191, !- X,Y,Z Vertex 2 {m}
  7.787277288, 0, 0.914552409526191,      !- X,Y,Z Vertex 3 {m}
  7.787277288, 0, 2.1336;                 !- X,Y,Z Vertex 4 {m}

FenestrationSurface:Detailed,
  Surface 5 - Window 6,                   !- Name
  Window,                                 !- Surface Type
  ,                                       !- Construction Name
  Surface 5,                              !- Building Surface Name
  ,                                       !- Outside Boundary Condition Object
  ,                                       !- View Factor to Ground
  ,                                       !- Frame and Divider Name
  ,                                       !- Multiplier
  ,                                       !- Number of Vertices
  7.848237288, 0, 2.1336,                 !- X,Y,Z Vertex 1 {m}
  7.848237288, 0, 0.914552409526191,      !- X,Y,Z Vertex 2 {m}
  8.76275160943572, 0, 0.914552409526191, !- X,Y,Z Vertex 3 {m}
  8.76275160943572, 0, 2.1336;            !- X,Y,Z Vertex 4 {m}

FenestrationSurface:Detailed,
  Surface 5 - Window 7,                   !- Name
  Window,                                 !- Surface Type
  ,                                       !- Construction Name
  Surface 5,                              !- Building Surface Name
  ,                                       !- Outside Boundary Condition Object
  ,                                       !- View Factor to Ground
  ,                                       !- Frame and Divider Name
  ,                                       !- Multiplier
  ,                                       !- Number of Vertices
  8.83884387056428, 0, 2.1336,            !- X,Y,Z Vertex 1 {m}
  8.83884387056428, 0, 0.914552409526191, !- X,Y,Z Vertex 2 {m}
  9.753358192, 0, 0.914552409526191,      !- X,Y,Z Vertex 3 {m}
  9.753358192, 0, 2.1336;                 !- X,Y,Z Vertex 4 {m}

FenestrationSurface:Detailed,
  Surface 5 - Window 8,                   !- Name
  Window,                                 !- Surface Type
  ,                                       !- Construction Name
  Surface 5,                              !- Building Surface Name
  ,                                       !- Outside Boundary Condition Object
  ,                                       !- View Factor to Ground
  ,                                       !- Frame and Divider Name
  ,                                       !- Multiplier
  ,                                       !- Number of Vertices
  9.814318192, 0, 2.1336,                 !- X,Y,Z Vertex 1 {m}
  9.814318192, 0, 0.914552409526191,      !- X,Y,Z Vertex 2 {m}
  10.7288325134357, 0, 0.914552409526191, !- X,Y,Z Vertex 3 {m}
  10.7288325134357, 0, 2.1336;            !- X,Y,Z Vertex 4 {m}

FenestrationSurface:Detailed,
  Surface 5 - Window 9,                   !- Name
  Window,                                 !- Surface Type
  ,                                       !- Construction Name
  Surface 5,                              !- Building Surface Name
  ,                                       !- Outside Boundary Condition Object
  ,                                       !- View Factor to Ground
  ,                                       !- Frame and Divider Name
  ,                                       !- Multiplier
  ,                                       !- Number of Vertices
  11.2926619352821, 0, 2.1336,            !- X,Y,Z Vertex 1 {m}
  11.2926619352821, 0, 0.914552409526191, !- X,Y,Z Vertex 2 {m}
  12.2071762567179, 0, 0.914552409526191, !- X,Y,Z Vertex 3 {m}
  12.2071762567179, 0, 2.1336;            !- X,Y,Z Vertex 4 {m}

BuildingSurface:Detailed,
  Surface 6,                              !- Name
  Ceiling,                                !- Surface Type
  ,                                       !- Construction Name
  conditioned space,                      !- Zone Name
  conditioned space 1,                    !- Space Name
  Surface,                                !- Outside Boundary Condition
  Surface 7,                              !- Outside Boundary Condition Object
  NoSun,                                  !- Sun Exposure
  NoWind,                                 !- Wind Exposure
  ,                                       !- View Factor to Ground
  ,                                       !- Number of Vertices
  13.716, 0, 2.4384,                      !- X,Y,Z Vertex 1 {m}
  13.716, 9.144, 2.4384,                  !- X,Y,Z Vertex 2 {m}
  0, 9.144, 2.4384,                       !- X,Y,Z Vertex 3 {m}
  0, 0, 2.4384;                           !- X,Y,Z Vertex 4 {m}

SimulationControl,
  No,                                     !- Do Zone Sizing Calculation
  No,                                     !- Do System Sizing Calculation
  No,                                     !- Do Plant Sizing Calculation
  Yes,                                    !- Run Simulation for Sizing Periods
  Yes,                                    !- Run Simulation for Weather File Run Periods
  ,                                       !- Do HVAC Sizing Simulation for Sizing Periods
  ;                                       !- Maximum Number of HVAC Sizing Simulation Passes

Sizing:Parameters,
  1.25,                                   !- Heating Sizing Factor
  1.15;                                   !- Cooling Sizing Factor

RunPeriod,
  Run Period 1,                           !- Name
  1,                                      !- Begin Month
  1,                                      !- Begin Day of Month
  2009,                                   !- Begin Year
  12,                                     !- End Month
  31,                                     !- End Day of Month
  2009,                                   !- End Year
  Thursday,                               !- Day of Week for Start Day
  No,                                     !- Use Weather File Holidays and Special Days
  No,                                     !- Use Weather File Daylight Saving Period
  No,                                     !- Apply Weekend Holiday Rule
  Yes,                                    !- Use Weather File Rain Indicators
  Yes;                                    !- Use Weather File Snow Indicators

Output:Table:SummaryReports,
  AllSummary;                             !- Report Name 1

GlobalGeometryRules,
  UpperLeftCorner,                        !- Starting Vertex Position
  Counterclockwise,                       !- Vertex Entry Direction
  Relative,                               !- Coordinate System
  Relative,                               !- Daylighting Reference Point Coordinate System
  Relative;                               !- Rectangular Surface Coordinate System

Schedule:Constant,
  Always On Discrete,                     !- Name
  OnOff,                                  !- Schedule Type Limits Name
  1;                                      !- Hourly Value

Schedule:Constant,
  Always Off Discrete,                    !- Name
  OnOff 1,                                !- Schedule Type Limits Name
  0;                                      !- Hourly Value

Schedule:Constant,
  Always On Continuous,                   !- Name
  Fractional,                             !- Schedule Type Limits Name
  1;                                      !- Hourly Value

ScheduleTypeLimits,
  Fractional,                             !- Name
  0,                                      !- Lower Limit Value {BasedOnField A3}
  1,                                      !- Upper Limit Value {BasedOnField A3}
  Continuous;                             !- Numeric Type

ScheduleTypeLimits,
  OnOff,                                  !- Name
  0,                                      !- Lower Limit Value {BasedOnField A3}
  1,                                      !- Upper Limit Value {BasedOnField A3}
  Discrete,                               !- Numeric Type
  availability;                           !- Unit Type

ScheduleTypeLimits,
  OnOff 1,                                !- Name
  0,                                      !- Lower Limit Value {BasedOnField A3}
  1,                                      !- Upper Limit Value {BasedOnField A3}
  Discrete,                               !- Numeric Type
  availability;                           !- Unit Type

OutdoorAir:Node,
  Model Outdoor Air Node;                 !- Name

OutputControl:Table:Style,
  HTML;                                   !- Column Separator

Output:VariableDictionary,
  IDF,                                    !- Key Field
  Unsorted;                               !- Sort Option

Output:SQLite,
  SimpleAndTabular;                       !- Option Type

LifeCycleCost:NonrecurringCost,
  Default Cost,                           !- Name
  Construction,                           !- Category
  0,                                      !- Cost
  ServicePeriod;                          !- Start of Costs

Output:Table:Monthly,
  Building Energy Performance - Electricity, !- Name
  2,                                      !- Digits After Decimal
  InteriorLights:Electricity,             !- Variable or Meter Name 1
  SumOrAverage,                           !- Aggregation Type for Variable or Meter 1
  ExteriorLights:Electricity,             !- Variable or Meter Name 2
  SumOrAverage,                           !- Aggregation Type for Variable or Meter 2
  InteriorEquipment:Electricity,          !- Variable or Meter Name 3
  SumOrAverage,                           !- Aggregation Type for Variable or Meter 3
  ExteriorEquipment:Electricity,          !- Variable or Meter Name 4
  SumOrAverage,                           !- Aggregation Type for Variable or Meter 4
  Fans:Electricity,                       !- Variable or Meter Name 5
  SumOrAverage,                           !- Aggregation Type for Variable or Meter 5
  Pumps:Electricity,                      !- Variable or Meter Name 6
  SumOrAverage,                           !- Aggregation Type for Variable or Meter 6
  Heating:Electricity,                    !- Variable or Meter Name 7
  SumOrAverage,                           !- Aggregation Type for Variable or Meter 7
  Cooling:Electricity,                    !- Variable or Meter Name 8
  SumOrAverage,                           !- Aggregation Type for Variable or Meter 8
  HeatRejection:Electricity,              !- Variable or Meter Name 9
  SumOrAverage,                           !- Aggregation Type for Variable or Meter 9
  Humidifier:Electricity,                 !- Variable or Meter Name 10
  SumOrAverage,                           !- Aggregation Type for Variable or Meter 10
  HeatRecovery:Electricity,               !- Variable or Meter Name 11
  SumOrAverage,                           !- Aggregation Type for Variable or Meter 11
  WaterSystems:Electricity,               !- Variable or Meter Name 12
  SumOrAverage,                           !- Aggregation Type for Variable or Meter 12
  Cogeneration:Electricity,               !- Variable or Meter Name 13
  SumOrAverage,                           !- Aggregation Type for Variable or Meter 13
  Refrigeration:Electricity,              !- Variable or Meter Name 14
  SumOrAverage;                           !- Aggregation Type for Variable or Meter 14

Output:Table:Monthly,
  Building Energy Performance - Natural Gas, !- Name
  2,                                      !- Digits After Decimal
  InteriorEquipment:NaturalGas,           !- Variable or Meter Name 1
  SumOrAverage,                           !- Aggregation Type for Variable or Meter 1
  ExteriorEquipment:NaturalGas,           !- Variable or Meter Name 2
  SumOrAverage,                           !- Aggregation Type for Variable or Meter 2
  Heating:NaturalGas,                     !- Variable or Meter Name 3
  SumOrAverage,                           !- Aggregation Type for Variable or Meter 3
  Cooling:NaturalGas,                     !- Variable or Meter Name 4
  SumOrAverage,                           !- Aggregation Type for Variable or Meter 4
  WaterSystems:NaturalGas,                !- Variable or Meter Name 5
  SumOrAverage,                           !- Aggregation Type for Variable or Meter 5
  Cogeneration:NaturalGas,                !- Variable or Meter Name 6
  SumOrAverage;                           !- Aggregation Type for Variable or Meter 6

Output:Table:Monthly,
  Building Energy Performance - District Heating Water, !- Name
  2,                                      !- Digits After Decimal
  InteriorLights:DistrictHeatingWater,    !- Variable or Meter Name 1
  SumOrAverage,                           !- Aggregation Type for Variable or Meter 1
  ExteriorLights:DistrictHeatingWater,    !- Variable or Meter Name 2
  SumOrAverage,                           !- Aggregation Type for Variable or Meter 2
  InteriorEquipment:DistrictHeatingWater, !- Variable or Meter Name 3
  SumOrAverage,                           !- Aggregation Type for Variable or Meter 3
  ExteriorEquipment:DistrictHeatingWater, !- Variable or Meter Name 4
  SumOrAverage,                           !- Aggregation Type for Variable or Meter 4
  Fans:DistrictHeatingWater,              !- Variable or Meter Name 5
  SumOrAverage,                           !- Aggregation Type for Variable or Meter 5
  Pumps:DistrictHeatingWater,             !- Variable or Meter Name 6
  SumOrAverage,                           !- Aggregation Type for Variable or Meter 6
  Heating:DistrictHeatingWater,           !- Variable or Meter Name 7
  SumOrAverage,                           !- Aggregation Type for Variable or Meter 7
  Cooling:DistrictHeatingWater,           !- Variable or Meter Name 8
  SumOrAverage,                           !- Aggregation Type for Variable or Meter 8
  HeatRejection:DistrictHeatingWater,     !- Variable or Meter Name 9
  SumOrAverage,                           !- Aggregation Type for Variable or Meter 9
  Humidifier:DistrictHeatingWater,        !- Variable or Meter Name 10
  SumOrAverage,                           !- Aggregation Type for Variable or Meter 10
  HeatRecovery:DistrictHeatingWater,      !- Variable or Meter Name 11
  SumOrAverage,                           !- Aggregation Type for Variable or Meter 11
  WaterSystems:DistrictHeatingWater,      !- Variable or Meter Name 12
  SumOrAverage,                           !- Aggregation Type for Variable or Meter 12
  Cogeneration:DistrictHeatingWater,      !- Variable or Meter Name 13
  SumOrAverage;                           !- Aggregation Type for Variable or Meter 13

Output:Table:Monthly,
  Building Energy Performance - District Cooling, !- Name
  2,                                      !- Digits After Decimal
  InteriorLights:DistrictCooling,         !- Variable or Meter Name 1
  SumOrAverage,                           !- Aggregation Type for Variable or Meter 1
  ExteriorLights:DistrictCooling,         !- Variable or Meter Name 2
  SumOrAverage,                           !- Aggregation Type for Variable or Meter 2
  InteriorEquipment:DistrictCooling,      !- Variable or Meter Name 3
  SumOrAverage,                           !- Aggregation Type for Variable or Meter 3
  ExteriorEquipment:DistrictCooling,      !- Variable or Meter Name 4
  SumOrAverage,                           !- Aggregation Type for Variable or Meter 4
  Fans:DistrictCooling,                   !- Variable or Meter Name 5
  SumOrAverage,                           !- Aggregation Type for Variable or Meter 5
  Pumps:DistrictCooling,                  !- Variable or Meter Name 6
  SumOrAverage,                           !- Aggregation Type for Variable or Meter 6
  Heating:DistrictCooling,                !- Variable or Meter Name 7
  SumOrAverage,                           !- Aggregation Type for Variable or Meter 7
  Cooling:DistrictCooling,                !- Variable or Meter Name 8
  SumOrAverage,                           !- Aggregation Type for Variable or Meter 8
  HeatRejection:DistrictCooling,          !- Variable or Meter Name 9
  SumOrAverage,                           !- Aggregation Type for Variable or Meter 9
  Humidifier:DistrictCooling,             !- Variable or Meter Name 10
  SumOrAverage,                           !- Aggregation Type for Variable or Meter 10
  HeatRecovery:DistrictCooling,           !- Variable or Meter Name 11
  SumOrAverage,                           !- Aggregation Type for Variable or Meter 11
  WaterSystems:DistrictCooling,           !- Variable or Meter Name 12
  SumOrAverage,                           !- Aggregation Type for Variable or Meter 12
  Cogeneration:DistrictCooling,           !- Variable or Meter Name 13
  SumOrAverage;                           !- Aggregation Type for Variable or Meter 13

Output:Table:Monthly,
  Building Energy Performance - Electricity Peak Demand, !- Name
  2,                                      !- Digits After Decimal
  Electricity:Facility,                   !- Variable or Meter Name 1
  Maximum,                                !- Aggregation Type for Variable or Meter 1
  InteriorLights:Electricity,             !- Variable or Meter Name 2
  ValueWhenMaximumOrMinimum,              !- Aggregation Type for Variable or Meter 2
  ExteriorLights:Electricity,             !- Variable or Meter Name 3
  ValueWhenMaximumOrMinimum,              !- Aggregation Type for Variable or Meter 3
  InteriorEquipment:Electricity,          !- Variable or Meter Name 4
  ValueWhenMaximumOrMinimum,              !- Aggregation Type for Variable or Meter 4
  ExteriorEquipment:Electricity,          !- Variable or Meter Name 5
  ValueWhenMaximumOrMinimum,              !- Aggregation Type for Variable or Meter 5
  Fans:Electricity,                       !- Variable or Meter Name 6
  ValueWhenMaximumOrMinimum,              !- Aggregation Type for Variable or Meter 6
  Pumps:Electricity,                      !- Variable or Meter Name 7
  ValueWhenMaximumOrMinimum,              !- Aggregation Type for Variable or Meter 7
  Heating:Electricity,                    !- Variable or Meter Name 8
  ValueWhenMaximumOrMinimum,              !- Aggregation Type for Variable or Meter 8
  Cooling:Electricity,                    !- Variable or Meter Name 9
  ValueWhenMaximumOrMinimum,              !- Aggregation Type for Variable or Meter 9
  HeatRejection:Electricity,              !- Variable or Meter Name 10
  ValueWhenMaximumOrMinimum,              !- Aggregation Type for Variable or Meter 10
  Humidifier:Electricity,                 !- Variable or Meter Name 11
  ValueWhenMaximumOrMinimum,              !- Aggregation Type for Variable or Meter 11
  HeatRecovery:Electricity,               !- Variable or Meter Name 12
  ValueWhenMaximumOrMinimum,              !- Aggregation Type for Variable or Meter 12
  WaterSystems:Electricity,               !- Variable or Meter Name 13
  ValueWhenMaximumOrMinimum,              !- Aggregation Type for Variable or Meter 13
  Cogeneration:Electricity,               !- Variable or Meter Name 14
  ValueWhenMaximumOrMinimum,              !- Aggregation Type for Variable or Meter 14
  Refrigeration:Electricity,              !- Variable or Meter Name 15
  ValueWhenMaximumOrMinimum;              !- Aggregation Type for Variable or Meter 15

Output:Table:Monthly,
  Building Energy Performance - Natural Gas Peak Demand, !- Name
  2,                                      !- Digits After Decimal
  NaturalGas:Facility,                    !- Variable or Meter Name 1
  Maximum,                                !- Aggregation Type for Variable or Meter 1
  InteriorEquipment:NaturalGas,           !- Variable or Meter Name 2
  ValueWhenMaximumOrMinimum,              !- Aggregation Type for Variable or Meter 2
  ExteriorEquipment:NaturalGas,           !- Variable or Meter Name 3
  ValueWhenMaximumOrMinimum,              !- Aggregation Type for Variable or Meter 3
  Heating:NaturalGas,                     !- Variable or Meter Name 4
  ValueWhenMaximumOrMinimum,              !- Aggregation Type for Variable or Meter 4
  Cooling:NaturalGas,                     !- Variable or Meter Name 5
  ValueWhenMaximumOrMinimum,              !- Aggregation Type for Variable or Meter 5
  WaterSystems:NaturalGas,                !- Variable or Meter Name 6
  ValueWhenMaximumOrMinimum,              !- Aggregation Type for Variable or Meter 6
  Cogeneration:NaturalGas,                !- Variable or Meter Name 7
  ValueWhenMaximumOrMinimum;              !- Aggregation Type for Variable or Meter 7

Output:Table:Monthly,
  Building Energy Performance - District Heating Water Peak Demand, !- Name
  2,                                      !- Digits After Decimal
  DistrictHeatingWater:Facility,          !- Variable or Meter Name 1
  Maximum,                                !- Aggregation Type for Variable or Meter 1
  InteriorLights:DistrictHeatingWater,    !- Variable or Meter Name 2
  ValueWhenMaximumOrMinimum,              !- Aggregation Type for Variable or Meter 2
  ExteriorLights:DistrictHeatingWater,    !- Variable or Meter Name 3
  ValueWhenMaximumOrMinimum,              !- Aggregation Type for Variable or Meter 3
  InteriorEquipment:DistrictHeatingWater, !- Variable or Meter Name 4
  ValueWhenMaximumOrMinimum,              !- Aggregation Type for Variable or Meter 4
  ExteriorEquipment:DistrictHeatingWater, !- Variable or Meter Name 5
  ValueWhenMaximumOrMinimum,              !- Aggregation Type for Variable or Meter 5
  Fans:DistrictHeatingWater,              !- Variable or Meter Name 6
  ValueWhenMaximumOrMinimum,              !- Aggregation Type for Variable or Meter 6
  Pumps:DistrictHeatingWater,             !- Variable or Meter Name 7
  ValueWhenMaximumOrMinimum,              !- Aggregation Type for Variable or Meter 7
  Heating:DistrictHeatingWater,           !- Variable or Meter Name 8
  ValueWhenMaximumOrMinimum,              !- Aggregation Type for Variable or Meter 8
  Cooling:DistrictHeatingWater,           !- Variable or Meter Name 9
  ValueWhenMaximumOrMinimum,              !- Aggregation Type for Variable or Meter 9
  HeatRejection:DistrictHeatingWater,     !- Variable or Meter Name 10
  ValueWhenMaximumOrMinimum,              !- Aggregation Type for Variable or Meter 10
  Humidifier:DistrictHeatingWater,        !- Variable or Meter Name 11
  ValueWhenMaximumOrMinimum,              !- Aggregation Type for Variable or Meter 11
  HeatRecovery:DistrictHeatingWater,      !- Variable or Meter Name 12
  ValueWhenMaximumOrMinimum,              !- Aggregation Type for Variable or Meter 12
  WaterSystems:DistrictHeatingWater,      !- Variable or Meter Name 13
  ValueWhenMaximumOrMinimum,              !- Aggregation Type for Variable or Meter 13
  Cogeneration:DistrictHeatingWater,      !- Variable or Meter Name 14
  ValueWhenMaximumOrMinimum;              !- Aggregation Type for Variable or Meter 14

Output:Table:Monthly,
  Building Energy Performance - District Cooling Peak Demand, !- Name
  2,                                      !- Digits After Decimal
  DistrictCooling:Facility,               !- Variable or Meter Name 1
  Maximum,                                !- Aggregation Type for Variable or Meter 1
  InteriorLights:DistrictCooling,         !- Variable or Meter Name 2
  ValueWhenMaximumOrMinimum,              !- Aggregation Type for Variable or Meter 2
  ExteriorLights:DistrictCooling,         !- Variable or Meter Name 3
  ValueWhenMaximumOrMinimum,              !- Aggregation Type for Variable or Meter 3
  InteriorEquipment:DistrictCooling,      !- Variable or Meter Name 4
  ValueWhenMaximumOrMinimum,              !- Aggregation Type for Variable or Meter 4
  ExteriorEquipment:DistrictCooling,      !- Variable or Meter Name 5
  ValueWhenMaximumOrMinimum,              !- Aggregation Type for Variable or Meter 5
  Fans:DistrictCooling,                   !- Variable or Meter Name 6
  ValueWhenMaximumOrMinimum,              !- Aggregation Type for Variable or Meter 6
  Pumps:DistrictCooling,                  !- Variable or Meter Name 7
  ValueWhenMaximumOrMinimum,              !- Aggregation Type for Variable or Meter 7
  Heating:DistrictCooling,                !- Variable or Meter Name 8
  ValueWhenMaximumOrMinimum,              !- Aggregation Type for Variable or Meter 8
  Cooling:DistrictCooling,                !- Variable or Meter Name 9
  ValueWhenMaximumOrMinimum,              !- Aggregation Type for Variable or Meter 9
  HeatRejection:DistrictCooling,          !- Variable or Meter Name 10
  ValueWhenMaximumOrMinimum,              !- Aggregation Type for Variable or Meter 10
  Humidifier:DistrictCooling,             !- Variable or Meter Name 11
  ValueWhenMaximumOrMinimum,              !- Aggregation Type for Variable or Meter 11
  HeatRecovery:DistrictCooling,           !- Variable or Meter Name 12
  ValueWhenMaximumOrMinimum,              !- Aggregation Type for Variable or Meter 12
  WaterSystems:DistrictCooling,           !- Variable or Meter Name 13
  ValueWhenMaximumOrMinimum,              !- Aggregation Type for Variable or Meter 13
  Cogeneration:DistrictCooling,           !- Variable or Meter Name 14
  ValueWhenMaximumOrMinimum;              !- Aggregation Type for Variable or Meter 14

Output:Meter:MeterFileOnly,
  NaturalGas:Facility,                    !- Key Name
  Daily;                                  !- Reporting Frequency

Output:Meter:MeterFileOnly,
  Electricity:Facility,                   !- Key Name
  Timestep;                               !- Reporting Frequency

Output:Meter:MeterFileOnly,
  Electricity:Facility,                   !- Key Name
  Daily;                                  !- Reporting Frequency

Output:Meter,
  Electricity:Facility,                   !- Key Name
  Timestep;                               !- Reporting Frequency

Output:Meter,
  NaturalGas:Facility,                    !- Key Name
  Timestep;                               !- Reporting Frequency

Output:Meter,
  DistrictHeatingWater:Facility,          !- Key Name
  Timestep;                               !- Reporting Frequency

Output:Meter,
  DistrictCooling:Facility,               !- Key Name
  Timestep;                               !- Reporting Frequency

